(define-fun |0_dst-port| () Int
  0)
(define-fun |0_A_OSPF_SINGLE-EXPORT__permitted| () Bool
  true)
(define-fun |0_A_OSPF_IMPORT_GigabitEthernet0/1_prefixLength| () Int
  9)
(define-fun |0__A_GigabitEthernet0/1_OUTBOUND_SOFTAdd| () Bool
  true)
(define-fun |0_A_OSPF_BEST_None_permitted| () Bool
  true)
(define-fun |0__B_GigabitEthernet0/3_OUTBOUND_SOFTAdd| () Bool
  true)
(define-fun |0__A_GigabitEthernet0/4_INBOUND_SOFTAdd| () Bool
  true)
(define-fun |0__B_GigabitEthernet0/3_INBOUND_SOFTAdd| () Bool
  true)
(define-fun |0_src-port| () Int
  0)
(define-fun |0_A_OSPF_IMPORT_GigabitEthernet0/1_metric| () Int
  3)
(define-fun |0_A_OVERALL_BEST_None_history| () (_ BitVec 1)
  #b0)
(define-fun |0_B_OSPF_SINGLE-EXPORT__permitted| () Bool
  true)
(define-fun AOSPFExportAddSoft () Bool
  true)
(define-fun |0_CONTROL-FORWARDING_A_GigabitEthernet0/1| () Bool
  true)
(define-fun |0_A_OSPF_BEST_None_metric| () Int
  3)
(define-fun |0_A_OSPF_SINGLE-EXPORT__prefixLength| () Int
  9)
(define-fun AOSPFExportRemoveSoft1.0.0.0/16 () Bool
  true)
(define-fun AOSPFExportRemoveSoft105.0.0.0/8 () Bool
  true)
(define-fun |0_A_OVERALL_BEST_None_metric| () Int
  3)
(define-fun |0_B_OSPF_IMPORT_GigabitEthernet0/1_metric| () Int
  2)
(define-fun |0_A_OSPF_BEST_None_prefixLength| () Int
  9)
(define-fun |0__A_GigabitEthernet0/3_OUTBOUND_SOFTAdd| () Bool
  true)
(define-fun |0_B_OVERALL_BEST_None_prefixLength| () Int
  9)
(define-fun |0_B_OVERALL_BEST_None_metric| () Int
  2)
(define-fun |0_icmp-type| () Int
  0)
(define-fun BOSPFExportRemoveSoft106.0.0.0/8 () Bool
  true)
(define-fun |0_B_OSPF_SINGLE-EXPORT__prefixLength| () Int
  9)
(define-fun |0__B_GigabitEthernet0/1_INBOUND_SOFTAdd| () Bool
  true)
(define-fun |0__A_GigabitEthernet0/4_OUTBOUND_SOFTAdd| () Bool
  true)
(define-fun |0_A_OVERALL_BEST_None_adminDist| () Int
  110)
(define-fun |0_B_OSPF_SINGLE-EXPORT__metric| () Int
  2)
(define-fun BOSPFExportRemoveSoft1.0.0.0/16 () Bool
  true)
(define-fun |0__A_GigabitEthernet0/3_INBOUND_SOFTAdd| () Bool
  true)
(define-fun |0__reachable-id_B| () Int
  2)
(define-fun BOSPFExportAddSoft () Bool
  false)
(define-fun |0_A_OVERALL_BEST_None_prefixLength| () Int
  9)
(define-fun |0_A_OSPF_SINGLE-EXPORT__metric| () Int
  1)
(define-fun |0_ip-protocol| () Int
  0)
(define-fun |0_CONTROL-FORWARDING_B_GigabitEthernet0/1| () Bool
  true)
(define-fun |0_icmp-code| () Int
  0)
(define-fun |0__A_GigabitEthernet0/1_INBOUND_SOFTAdd| () Bool
  true)
(define-fun |0_B_OVERALL_BEST_None_permitted| () Bool
  true)
(define-fun |0__B_GigabitEthernet0/1_OUTBOUND_SOFTAdd| () Bool
  true)
(define-fun |0_B_OSPF_IMPORT_GigabitEthernet0/1_prefixLength| () Int
  9)
(define-fun |0_A_CONNECTED_IMPORT_GigabitEthernet0/3_prefixLength| () Int
  8)
(define-fun |0__reachable_B| () Bool
  true)
(define-fun |0__reachable_A| () Bool
  true)
(define-fun |0__reachable-id_A| () Int
  1)
(define-fun |0_src-ip| () (_ BitVec 32)
  #x6a000203)
(define-fun |0_dst-ip| () (_ BitVec 32)
  #x68000103)
(define-fun |0_DATA-FORWARDING_B_GigabitEthernet0/3| () Bool
  false)
(define-fun |0_DATA-FORWARDING_B_GigabitEthernet0/1| () Bool
  true)
(define-fun |0_DATA-FORWARDING_A_GigabitEthernet0/1| () Bool
  true)
(define-fun |0_DATA-FORWARDING_A_GigabitEthernet0/4| () Bool
  false)
(define-fun |0_DATA-FORWARDING_A_GigabitEthernet0/3| () Bool
  false)
(define-fun |0_CONTROL-FORWARDING_B_GigabitEthernet0/3| () Bool
  false)
(define-fun |0_CONTROL-FORWARDING_A_GigabitEthernet0/3| () Bool
  false)
(define-fun |0_CONTROL-FORWARDING_A_GigabitEthernet0/4| () Bool
  false)
(define-fun |0_A_OVERALL_BEST_None_permitted| () Bool
  true)
(define-fun |0_B_OSPF_IMPORT_GigabitEthernet0/1_choice| () Bool
  true)
(define-fun |0_A_CONNECTED_IMPORT_GigabitEthernet0/3_choice| () Bool
  true)
(define-fun |0_A_OSPF_IMPORT_GigabitEthernet0/1_choice| () Bool
  true)
(define-fun |0_B_OSPF_IMPORT_GigabitEthernet0/1_permitted| () Bool
  true)
(define-fun |0_A_CONNECTED_BEST_None_permitted| () Bool
  true)
(define-fun |0_A_CONNECTED_BEST_None_prefixLength| () Int
  8)
(define-fun |0_A_OSPF_IMPORT_GigabitEthernet0/1_permitted| () Bool
  true)
(define-fun |0_A_CONNECTED_IMPORT_GigabitEthernet0/3_permitted| () Bool
  true)
(define-fun |0_FAILED-EDGE_A_GigabitEthernet0/4| () Int
  0)
(define-fun |0_FAILED-EDGE_B_GigabitEthernet0/3| () Int
  0)
(define-fun |0_FAILED-EDGE_A_GigabitEthernet0/3| () Int
  0)
(define-fun |0_FAILED-EDGE_A_B| () Int
  0)
(define-fun |0_tcp-syn| () Bool
  false)
(define-fun |0_tcp-psh| () Bool
  false)
(define-fun |0_tcp-urg| () Bool
  false)
(define-fun |0_tcp-cwr| () Bool
  false)
(define-fun |0_tcp-rst| () Bool
  false)
(define-fun |0_tcp-ece| () Bool
  false)
(define-fun |0_tcp-ack| () Bool
  false)
(define-fun |0_tcp-fin| () Bool
  false)